
Gurobi 11.0.3 (linux64) logging started Sun Nov 24 19:11:31 2024

Set parameter LogFile to value "/home/yihong/Coding/OR_SUC/SUC_results_bigM100000_thread4/case24_ieee_rts_theta0.1_epsilon0.05_gurobi_seed1270000_num_gen100_N_WDR100_load_scaling_factor1_exact_T8quadra_cost.txt"
Set parameter TimeLimit to value 3600
Gurobi Optimizer version 11.0.3 build v11.0.3rc0 (linux64 - "Ubuntu 20.04.6 LTS")

CPU model: AMD EPYC 7532 32-Core Processor, instruction set [SSE2|AVX|AVX2]
Thread count: 64 physical cores, 128 logical processors, using up to 4 threads

Optimize a model with 18955 rows, 10121 columns and 440954 nonzeros
Model fingerprint: 0xb91052e3
Model has 800 quadratic constraints
Variable types: 9221 continuous, 900 integer (900 binary)
Coefficient statistics:
  Matrix range     [3e-04, 1e+05]
  QMatrix range    [2e-03, 8e-03]
  QLMatrix range   [4e-01, 6e+01]
  Objective range  [1e+00, 1e+00]
  Bounds range     [1e+00, 1e+00]
  RHS range        [1e+00, 1e+05]
Presolve removed 15655 rows and 4467 columns
Presolve time: 0.10s
Presolved: 3300 rows, 5654 columns, 19376 nonzeros
Presolved model has 800 quadratic constraint(s)
Variable types: 4794 continuous, 860 integer (860 binary)

Root relaxation: objective 9.577371e+03, 2661 iterations, 0.05 seconds (0.06 work units)

    Nodes    |    Current Node    |     Objective Bounds      |     Work
 Expl Unexpl |  Obj  Depth IntInf | Incumbent    BestBd   Gap | It/Node Time

     0     0 9577.37086    0    8          - 9577.37086      -     -    0s
     0     0 78792.3954    0  376          - 78792.3954      -     -    0s
     0     0 79042.3950    0  372          - 79042.3950      -     -    0s
     0     0 183359.711    0  141          - 183359.711      -     -    0s
     0     0 183404.982    0  137          - 183404.982      -     -    0s
     0     0 183589.619    0   89          - 183589.619      -     -    0s
     0     0 183652.755    0   84          - 183652.755      -     -    0s
     0     0 183663.550    0   91          - 183663.550      -     -    0s
     0     0 183664.302    0   91          - 183664.302      -     -    0s
     0     2 183664.613    0   91          - 183664.613      -     -    0s
H  254   244                    184788.59613 183814.443  0.53%   8.7    1s
*  254   244              70    184788.59613 183814.443  0.53%   8.7    1s
   566   297 184350.592   32   91 184788.596 184272.073  0.28%  23.5    5s
H 1504   330                    184347.00007 184279.716  0.04%  18.6    7s
* 1504   330              80    184347.00007 184279.716  0.04%  18.6    7s

Cutting planes:
  Gomory: 16
  Implied bound: 87
  Projected implied bound: 7
  MIR: 39
  Flow cover: 140
  RLT: 1

Explored 1527 nodes (35463 simplex iterations) in 7.40 seconds (5.97 work units)
Thread count was 4 (of 128 available processors)

Solution count 3: 184347 184347 184789 

Optimal solution found (tolerance 1.00e-03)
Warning: max constraint violation (1.1068e-06) exceeds tolerance
Best objective 1.843470000731e+05, best bound 1.842797160765e+05, gap 0.0365%
